benchmarks/bfuzz0/1372281950381974231511550920375148.smt2
(set-logic QF_FP)
(declare-const x0 (_ FloatingPoint 11 53))
(declare-const x1 (_ FloatingPoint 11 53))
(declare-const x2 (_ FloatingPoint 11 53))
(declare-const x3 (_ FloatingPoint 11 53))
(declare-const x4 (_ FloatingPoint 11 53))
(declare-const x5 (_ FloatingPoint 11 53))
(assert (fp.gt (fp.div RNE x1 x5) (fp.div RNE x3 x3)))
(check-sat)
