db/data/1372281950381974231511550920375148.z3.out
sat
-------------------
98.856534941
